12
0 455 181 203 501 63 8 727 651 57 160 770
455 0 82 37 238 212 329 26 39 5 201 190
181 82 0 86 180 684 163 210 137 276 309 272
203 37 86 0 562 83 194 92 198 56 12 216
501 238 180 562 0 163 346 139 260 231 446 577
63 212 684 83 163 0 304 387 135 91 181 63
8 329 163 194 346 304 0 806 454 563 37 210
727 26 210 92 139 387 806 0 509 559 333 46
651 39 137 198 260 135 454 509 0 66 2 488
57 5 276 56 231 91 563 559 66 0 14 282
160 201 309 12 446 181 37 333 2 14 0 715
770 190 272 216 577 63 210 46 488 282 715 0